Gurobi Optimizer version 9.1.0 build v9.1.0rc0 (linux64)
Thread count: 8 physical cores, 16 logical processors, using up to 16 threads
Optimize a model with 96164 rows, 90720 columns and 526770 nonzeros
Model fingerprint: 0x59caa814
Variable types: 0 continuous, 90720 integer (90720 binary)
Coefficient statistics:
  Matrix range     [1e+00, 1e+00]
  Objective range  [1e+01, 3e+04]
  Bounds range     [1e+00, 1e+00]
  RHS range        [1e+00, 2e+02]
Presolve added 0 rows and 2470 columns
Presolve removed 30 rows and 0 columns
Presolve time: 1.91s
Presolved: 96134 rows, 93190 columns, 384210 nonzeros
Variable types: 0 continuous, 93190 integer (93190 binary)
Found heuristic solution: objective 343342.00000

Concurrent LP optimizer: primal simplex, dual simplex, and barrier
Showing barrier log only...

Root barrier log...

Ordering time: 0.33s

Barrier statistics:
 Dense cols : 360
 AA' NZ     : 2.982e+05
 Factor NZ  : 1.555e+06 (roughly 90 MBytes of memory)
 Factor Ops : 4.160e+08 (less than 1 second per iteration)
 Threads    : 6

                  Objective                Residual
Iter       Primal          Dual         Primal    Dual     Compl     Time
   0   7.65915633e+07 -1.06150736e+08  2.12e+02 3.09e+01  9.52e+03     4s
   1   1.04449076e+06 -1.18250456e+08  4.82e+00 4.28e+03  5.81e+02     4s
   2   5.06844063e+05 -4.29131462e+07  9.17e-01 1.02e+03  1.74e+02     4s
   3   4.50390327e+05 -1.07230897e+07  5.07e-01 2.30e+02  4.32e+01     4s
   4   3.97875358e+05 -1.80358941e+06  1.59e-01 5.57e+01  8.13e+00     4s
   5   3.79032186e+05 -7.55908255e+05  8.89e-02 2.46e+01  4.14e+00     4s
   6   3.62029549e+05  2.05628757e+04  5.96e-02 5.93e+00  1.22e+00     4s
   7   3.46179688e+05  2.01153967e+05  4.33e-02 1.78e+00  5.10e-01     5s
   8   3.35658627e+05  2.38114964e+05  3.39e-02 1.02e+00  3.40e-01     5s
   9   3.31137782e+05  2.52914913e+05  3.05e-02 7.24e-01  2.71e-01     5s
  10   3.26723299e+05  2.62560923e+05  2.71e-02 5.29e-01  2.21e-01     5s
  11   3.22622544e+05  2.71961640e+05  2.40e-02 3.40e-01  1.74e-01     5s
  12   3.18828144e+05  2.77672050e+05  2.11e-02 2.30e-01  1.40e-01     5s
  13   3.10936163e+05  2.82562938e+05  1.56e-02 1.33e-01  9.62e-02     6s
  14   3.07705183e+05  2.84765899e+05  1.32e-02 8.96e-02  7.75e-02     6s
  15   3.03051631e+05  2.86155583e+05  1.01e-02 6.33e-02  5.69e-02     6s
  16   3.00784443e+05  2.87419539e+05  8.35e-03 4.11e-02  4.49e-02     6s
  17   2.98083653e+05  2.87921471e+05  6.27e-03 3.19e-02  3.41e-02     6s
  18   2.97841794e+05  2.88110544e+05  6.10e-03 2.92e-02  3.27e-02     6s
  19   2.96595160e+05  2.88644604e+05  5.22e-03 2.14e-02  2.66e-02     7s
  20   2.95044663e+05  2.88874146e+05  4.03e-03 1.98e-02  2.06e-02     7s
  21   2.93959158e+05  2.89183610e+05  3.23e-03 1.73e-02  1.59e-02     7s
  22   2.93269796e+05  2.89424177e+05  2.66e-03 1.33e-02  1.28e-02     7s
  23   2.92611947e+05  2.89578658e+05  2.10e-03 9.17e-03  1.01e-02     7s
  24   2.92201959e+05  2.89679921e+05  1.76e-03 7.49e-03  8.39e-03     7s
  25   2.91843430e+05  2.89865240e+05  1.44e-03 4.89e-03  6.56e-03     7s
  26   2.91486487e+05  2.89934908e+05  1.13e-03 3.65e-03  5.14e-03     8s
  27   2.91223728e+05  2.90003459e+05  8.92e-04 2.76e-03  4.04e-03     8s
  28   2.91146478e+05  2.90012897e+05  8.29e-04 2.60e-03  3.76e-03     8s
  29   2.91055293e+05  2.90042346e+05  7.45e-04 2.19e-03  3.36e-03     8s
  30   2.90893831e+05  2.90077234e+05  6.18e-04 1.85e-03  2.70e-03     8s
  31   2.90757154e+05  2.90091167e+05  4.94e-04 1.66e-03  2.20e-03     8s
  32   2.90607702e+05  2.90112057e+05  3.55e-04 1.36e-03  1.65e-03     8s
  33   2.90559091e+05  2.90145719e+05  3.09e-04 8.71e-04  1.37e-03     9s
  34   2.90490417e+05  2.90167709e+05  2.51e-04 6.53e-04  1.06e-03     9s
  35   2.90410052e+05  2.90176921e+05  1.80e-04 5.48e-04  7.69e-04     9s
  36   2.90391111e+05  2.90184534e+05  1.63e-04 4.35e-04  6.80e-04     9s
  37   2.90342309e+05  2.90186351e+05  1.18e-04 4.08e-04  5.16e-04     9s
  38   2.90335477e+05  2.90194132e+05  1.12e-04 3.08e-04  4.65e-04     9s
  39   2.90308568e+05  2.90199684e+05  8.70e-05 2.37e-04  3.58e-04    10s
  40   2.90293005e+05  2.90203287e+05  7.23e-05 1.92e-04  2.95e-04    10s
  41   2.90286667e+05  2.90205575e+05  6.61e-05 1.71e-04  2.66e-04    10s
  42   2.90270863e+05  2.90209437e+05  5.08e-05 1.39e-04  2.01e-04    10s
  43   2.90265884e+05  2.90212325e+05  4.55e-05 1.06e-04  1.75e-04    10s
  44   2.90252035e+05  2.90213202e+05  3.09e-05 9.74e-05  1.28e-04    10s
  45   2.90243921e+05  2.90215921e+05  2.23e-05 6.57e-05  9.21e-05    10s
  46   2.90240939e+05  2.90218158e+05  1.93e-05 4.23e-05  7.45e-05    11s
  47   2.90237079e+05  2.90219216e+05  1.52e-05 3.12e-05  5.84e-05    11s
  48   2.90232685e+05  2.90220092e+05  1.07e-05 2.24e-05  4.12e-05    11s
  49   2.90229959e+05  2.90221132e+05  7.73e-06 1.36e-05  2.88e-05    11s
  50   2.90229412e+05  2.90221248e+05  7.21e-06 1.26e-05  2.66e-05    11s
  51   2.90226093e+05  2.90221701e+05  3.75e-06 8.51e-06  1.44e-05    11s
  52   2.90224659e+05  2.90222064e+05  2.12e-06 5.69e-06  8.52e-06    11s
  53   2.90223131e+05  2.90222293e+05  3.96e-07 3.69e-06  2.86e-06    11s
  54   2.90223019e+05  2.90222632e+05  2.81e-07 7.97e-07  1.28e-06    12s
  55   2.90222875e+05  2.90222674e+05  1.30e-07 4.97e-07  6.69e-07    12s
  56   2.90222781e+05  2.90222730e+05  3.55e-08 4.37e-07  1.70e-07    12s
  57   2.90222745e+05  2.90222736e+05  9.96e-10 2.69e-07  3.30e-08    12s
  58   2.90222745e+05  2.90222736e+05  6.18e-09 2.58e-07  3.16e-08    12s
  59   2.90222745e+05  2.90222736e+05  5.88e-09 2.56e-07  3.15e-08    12s
  60   2.90222745e+05  2.90222736e+05  2.03e-09 2.56e-07  3.14e-08    12s

Barrier solved model in 60 iterations and 12.30 seconds
Optimal objective 2.90222745e+05


Root crossover log...

   17167 DPushes remaining with DInf 3.9863953e-03                12s
       0 DPushes remaining with DInf 0.0000000e+00                13s

     804 PPushes remaining with PInf 0.0000000e+00                13s
       0 PPushes remaining with PInf 0.0000000e+00                13s

  Push phase complete: Pinf 0.0000000e+00, Dinf 1.1590373e-10     13s


Root simplex log...

Iteration    Objective       Primal Inf.    Dual Inf.      Time
    3700    2.9022274e+05   0.000000e+00   0.000000e+00     13s
    3700    2.9022274e+05   0.000000e+00   0.000000e+00     13s

Solved with barrier

Root relaxation: objective 2.902227e+05, 3700 iterations, 10.21 seconds

    Nodes    |    Current Node    |     Objective Bounds      |     Work
 Expl Unexpl |  Obj  Depth IntInf | Incumbent    BestBd   Gap | It/Node Time

     0     0 290222.744    0 9593 343342.000 290222.744  15.5%     -   13s
H    0     0                    312112.00000 290222.744  7.01%     -   14s
H    0     0                    312101.00000 290222.744  7.01%     -   14s
H    0     0                    311573.00000 290222.744  6.85%     -   14s
     0     0 290224.627    0 9592 311573.000 290224.627  6.85%     -   19s
H    0     0                    311570.00000 290224.627  6.85%     -   20s
H    0     0                    311560.00000 290224.627  6.85%     -   20s
H    0     0                    310641.00000 290224.627  6.57%     -   34s
     0     0 290226.348    0 9537 310641.000 290226.348  6.57%     -   36s
     0     0 290226.531    0 9535 310641.000 290226.531  6.57%     -   36s
     0     0 290228.603    0 9574 310641.000 290228.603  6.57%     -   40s
H    0     0                    310634.00000 290228.603  6.57%     -   41s
H    0     0                    310403.00000 290228.603  6.50%     -   41s
     0     0 290228.831    0 9584 310403.000 290228.831  6.50%     -   42s
     0     0 290228.831    0 9584 310403.000 290228.831  6.50%     -   42s
     0     0 290234.477    0 9572 310403.000 290234.477  6.50%     -   51s
     0     0 290234.534    0 9564 310403.000 290234.534  6.50%     -   52s
     0     0 290240.116    0 9739 310403.000 290240.116  6.50%     -   62s
H    0     0                    310253.00000 290240.116  6.45%     -   62s
     0     0 290240.435    0 9741 310253.000 290240.435  6.45%     -   63s
     0     0 290240.486    0 9738 310253.000 290240.486  6.45%     -   63s
     0     0 290240.504    0 9743 310253.000 290240.504  6.45%     -   64s
     0     0 290243.322    0 9807 310253.000 290243.322  6.45%     -   72s
H    0     0                    310252.00000 290243.322  6.45%     -   73s
     0     0 290243.465    0 9808 310252.000 290243.465  6.45%     -   74s
     0     0 290243.465    0 9809 310252.000 290243.465  6.45%     -   74s
     0     0 290243.465    0 9788 310252.000 290243.465  6.45%     -   88s
     0     2 290243.465    0 9772 310252.000 290243.465  6.45%     -  104s
     1     4 290531.019    1 9597 310252.000 290243.488  6.45% 20427  183s
     3     8 290760.247    2 9638 310252.000 290502.657  6.37% 13726  245s
     7    15 290886.710    3 10017 310252.000 290613.537  6.33% 11792  300s

Cutting planes:
  Gomory: 5
  Zero half: 57

Explored 14 nodes (145874 simplex iterations) in 300.10 seconds
Thread count was 16 (of 16 available processors)

Solution count 10: 310252 310253 310403 ... 312112

Time limit reached
Best objective 3.102520000000e+05, best bound 2.906140000000e+05, gap 6.3297%

User-callback calls 43213, time in user-callback 0.53 sec
['/opt/local/stow/gurobi910/linux64/lib/libgurobi91.so']
Result: runtime=300.05sec; objective=310252; gap=0.0633%
Solution written to /autofs/unityaccount/cremi/mdeboute/Bureau/multi-period-flp/solution//instMulti_I30_J250_T12_0_result.txt
